100
25 250 351 25 195 195 175 195 50 175 175 25 200 234 117 25 75 225 200 390 39 234 78 312 150 273 78 39 273 50 175 250 175 250 195 390 175 273 125 312 75 100 273 225 273 50 75 100 39 225 75 351 200 312 75 150 175 39 273 312 125 234 312 234 117 195 312 125 39 200 225 390 100 390 250 225 117 117 150 150 234 273 78 117 78 390 50 234 200 351 175 195 125 225 351 390 225 200 225 39 
49 490 99 49 55 55 343 55 98 343 343 49 392 66 33 49 147 441 392 110 11 66 22 88 294 77 22 11 77 98 343 490 343 490 55 110 343 77 245 88 147 196 77 441 77 98 147 196 11 441 147 99 392 88 147 294 343 11 77 88 245 66 88 66 33 55 88 245 11 392 441 110 196 110 490 441 33 33 294 294 66 77 22 33 22 110 98 66 392 99 343 55 245 441 99 110 441 392 441 11 
9260
